DIMACS2
80 131 311 13 5 142 143 280 81 70 277 268 111 183 238 67 101 31 310 148 256 15 141 118 308 40 197 235 14 227 95 172 129 42 104 254 225 204 315 63 126 228 113 305 110 85 263 123 9 236 155 41 163 37 317 303 28 201 165 229 153 121 80 247 169 283 195 136 3 181 86 156 50 103 48 102 71 132 167 189 119
p edge 320 2505
e 0 93 1.0
e 0 171 1.0
e 0 133 1.0
e 0 64 2.0
e 0 109 2.0
e 0 76 1.0
e 0 167 8.0
e 0 297 2.0
e 1 125 1.0
e 1 97 1.0
e 1 153 26.0
e 1 26 1.0
e 1 245 1.0
e 1 268 3.0
e 1 144 1.0
e 1 50 21.0
e 2 248 1.0
e 2 217 1.0
e 2 41 22.0
e 2 260 1.0
e 2 255 1.0
e 2 221 1.0
e 2 112 1.0
e 2 305 17.0
e 3 4 3.0
e 3 309 9.0
e 3 131 16.0
e 3 281 12.0
e 3 74 19.0
e 3 15 49.0
e 3 238 25.0
e 3 277 33.0
e 4 207 1.0
e 4 134 1.0
e 4 8 1.0
e 4 284 1.0
e 4 193 1.0
e 4 117 1.0
e 4 24 1.0
e 4 72 1.0
e 5 112 19.0
e 5 217 8.0
e 5 297 9.0
e 5 196 21.0
e 5 292 24.0
e 5 260 43.0
e 6 71 19.0
e 6 262 3.0
e 6 59 1.0
e 6 299 2.0
e 6 298 1.0
e 6 279 2.0
e 6 29 1.0
e 6 313 2.0
e 7 25 1.0
e 7 222 1.0
e 7 5 47.0
e 7 138 1.0
e 7 308 25.0
e 7 229 17.0
e 7 164 1.0
e 7 191 1.0
e 8 149 1.0
e 8 249 1.0
e 8 106 1.0
e 8 175 1.0
e 8 254 5.0
e 8 51 1.0
e 8 78 1.0
e 9 36 6.0
e 9 11 40.0
e 9 313 35.0
e 9 231 22.0
e 9 232 41.0
e 9 204 8.0
e 9 145 3.0
e 9 176 18.0
e 10 153 11.0
e 10 219 1.0
e 10 245 1.0
e 10 249 1.0
e 10 290 1.0
e 10 37 22.0
e 10 302 1.0
e 10 50 49.0
e 11 53 1.0
e 11 71 48.0
e 11 73 1.0
e 11 22 1.0
e 11 167 31.0
e 11 188 1.0
e 11 131 1.0
e 12 224 1.0
e 12 156 43.0
e 12 83 1.0
e 12 76 1.0
e 12 176 1.0
e 12 251 1.0
e 12 202 1.0
e 12 297 1.0
e 13 20 22.0
e 13 192 10.0
e 13 308 34.0
e 13 7 1.0
e 13 203 21.0
e 13 111 44.0
e 13 252 21.0
e 13 316 40.0
e 14 57 42.0
e 14 74 13.0
e 14 93 42.0
e 14 153 19.0
e 14 128 40.0
e 14 11 46.0
e 14 99 38.0
e 14 264 5.0
e 15 213 42.0
e 15 280 48.0
e 15 40 43.0
e 15 107 33.0
e 15 192 6.0
e 15 245 45.0
e 15 269 23.0
e 15 181 23.0
e 16 215 1.0
e 16 141 14.0
e 16 121 12.0
e 16 85 44.0
e 16 81 25.0
e 16 276 1.0
e 16 40 8.0
e 16 271 1.0
e 17 146 2.0
e 17 68 2.0
e 17 307 2.0
e 17 243 1.0
e 17 54 2.0
e 17 117 2.0
e 17 69 2.0
e 17 296 1.0
e 18 157 1.0
e 18 289 1.0
e 18 123 2.0
e 18 238 43.0
e 18 261 1.0
e 18 42 3.0
e 18 204 29.0
e 18 245 1.0
e 19 48 38.0
e 19 21 1.0
e 19 106 1.0
e 19 156 7.0
e 19 112 1.0
e 19 294 1.0
e 19 126 2.0
e 20 213 1.0
e 20 109 1.0
e 20 132 23.0
e 20 123 39.0
e 20 60 1.0
e 20 252 1.0
e 20 75 1.0
e 21 139 1.0
e 21 176 1.0
e 21 44 1.0
e 21 295 1.0
e 21 202 1.0
e 21 43 1.0
e 21 111 35.0
e 21 261 1.0
e 22 151 1.0
e 22 20 1.0
e 22 292 1.0
e 22 264 1.0
e 22 196 1.0
e 22 232 1.0
e 22 285 1.0
e 22 185 1.0
e 23 5 46.0
e 23 19 1.0
e 23 181 29.0
e 23 93 1.0
e 23 202 1.0
e 23 227 20.0
e 23 98 1.0
e 23 115 1.0
e 24 154 1.0
e 24 84 1.0
e 24 178 1.0
e 24 106 1.0
e 24 70 30.0
e 24 41 17.0
e 24 145 1.0
e 24 19 1.0
e 25 34 3.0
e 25 26 1.0
e 25 196 2.0
e 25 316 1.0
e 25 245 2.0
e 25 149 1.0
e 25 286 1.0
e 25 318 1.0
e 26 303 37.0
e 26 298 1.0
e 26 197 30.0
e 26 40 47.0
e 26 162 1.0
e 26 145 1.0
e 26 148 11.0
e 26 237 1.0
e 27 64 1.0
e 27 239 1.0
e 27 301 1.0
e 27 115 1.0
e 27 26 1.0
e 27 3 15.0
e 27 242 1.0
e 27 98 1.0
e 28 169 20.0
e 28 30 36.0
e 28 83 39.0
e 28 127 34.0
e 28 12 30.0
e 28 259 34.0
e 28 208 35.0
e 29 310 3.0
e 29 191 1.0
e 29 223 1.0
e 29 280 12.0
e 29 311 45.0
e 29 123 20.0
e 29 192 1.0
e 29 99 1.0
e 30 90 1.0
e 30 175 1.0
e 30 299 1.0
e 30 198 1.0
e 30 190 1.0
e 30 315 30.0
e 30 268 34.0
e 30 234 1.0
e 31 133 11.0
e 31 283 39.0
e 31 297 9.0
e 31 104 1.0
e 31 233 46.0
e 31 129 13.0
e 31 256 45.0
e 31 152 9.0
e 32 186 1.0
e 32 251 1.0
e 32 59 1.0
e 32 93 1.0
e 32 137 2.0
e 32 181 3.0
e 32 4 1.0
e 32 91 1.0
e 33 42 46.0
e 33 32 1.0
e 33 101 43.0
e 33 271 1.0
e 33 267 1.0
e 33 286 1.0
e 33 85 10.0
e 33 144 1.0
e 34 78 1.0
e 34 80 46.0
e 34 157 1.0
e 34 69 1.0
e 34 19 1.0
e 34 11 1.0
e 34 260 1.0
e 34 132 34.0
e 35 40 24.0
e 35 288 1.0
e 35 126 13.0
e 35 51 1.0
e 35 149 1.0
e 35 148 47.0
e 35 117 1.0
e 35 244 1.0
e 36 11 1.0
e 36 58 1.0
e 36 117 1.0
e 36 196 1.0
e 36 150 1.0
e 36 317 44.0
e 36 8 1.0
e 37 252 30.0
e 37 177 11.0
e 37 44 42.0
e 37 315 21.0
e 37 193 48.0
e 37 26 32.0
e 37 235 2.0
e 37 224 27.0
e 38 133 1.0
e 38 30 1.0
e 38 236 29.0
e 38 180 1.0
e 38 124 1.0
e 38 279 1.0
e 38 145 3.0
e 38 170 2.0
e 39 113 17.0
e 39 88 1.0
e 39 191 1.0
e 39 315 2.0
e 39 120 1.0
e 39 101 24.0
e 39 149 1.0
e 39 303 31.0
e 40 261 16.0
e 40 288 19.0
e 40 30 44.0
e 40 175 35.0
e 40 104 17.0
e 40 198 43.0
e 40 257 42.0
e 40 51 16.0
e 41 278 29.0
e 41 243 18.0
e 41 85 12.0
e 41 289 26.0
e 41 280 15.0
e 41 127 7.0
e 41 197 35.0
e 41 126 5.0
e 42 80 43.0
e 42 176 13.0
e 42 57 23.0
e 42 282 33.0
e 42 144 18.0
e 42 293 38.0
e 42 163 24.0
e 42 297 22.0
e 43 39 1.0
e 43 113 27.0
e 43 244 1.0
e 43 72 1.0
e 43 310 6.0
e 43 173 1.0
e 43 196 1.0
e 43 164 1.0
e 44 286 1.0
e 44 138 1.0
e 44 272 1.0
e 44 236 4.0
e 44 139 1.0
e 44 137 3.0
e 44 83 1.0
e 44 309 1.0
e 45 113 42.0
e 45 81 40.0
e 45 11 1.0
e 45 211 1.0
e 45 115 1.0
e 45 200 1.0
e 45 260 1.0
e 45 262 1.0
e 46 289 1.0
e 46 242 1.0
e 46 1 1.0
e 46 226 1.0
e 46 248 2.0
e 46 112 2.0
e 46 207 2.0
e 46 285 1.0
e 47 314 1.0
e 47 236 38.0
e 47 233 1.0
e 47 281 1.0
e 47 195 27.0
e 47 292 1.0
e 47 219 1.0
e 47 137 2.0
e 48 211 8.0
e 48 25 24.0
e 48 200 18.0
e 48 251 25.0
e 48 279 14.0
e 48 170 8.0
e 48 277 12.0
e 48 15 33.0
e 49 304 1.0
e 49 13 20.0
e 49 281 1.0
e 49 92 1.0
e 49 121 11.0
e 49 100 1.0
e 49 17 1.0
e 49 5 13.0
e 50 168 22.0
e 50 60 16.0
e 50 187 24.0
e 50 159 38.0
e 50 45 34.0
e 50 105 35.0
e 50 75 33.0
e 50 101 36.0
e 51 276 1.0
e 51 98 1.0
e 51 39 1.0
e 51 162 1.0
e 51 315 1.0
e 51 200 1.0
e 51 186 1.0
e 51 181 44.0
e 52 44 1.0
e 52 277 16.0
e 52 317 9.0
e 52 106 1.0
e 52 261 1.0
e 52 228 24.0
e 52 212 1.0
e 52 251 1.0
e 53 243 1.0
e 53 174 1.0
e 53 142 21.0
e 53 213 1.0
e 53 214 1.0
e 53 143 7.0
e 53 17 2.0
e 53 215 1.0
e 54 191 1.0
e 54 102 24.0
e 54 134 1.0
e 54 69 1.0
e 54 107 1.0
e 54 116 1.0
e 54 53 1.0
e 54 313 1.0
e 55 32 1.0
e 55 76 1.0
e 55 189 21.0
e 55 111 11.0
e 55 31 30.0
e 55 253 1.0
e 55 246 1.0
e 55 173 1.0
e 56 102 23.0
e 56 95 26.0
e 56 207 1.0
e 56 241 1.0
e 56 233 1.0
e 56 246 1.0
e 56 140 1.0
e 57 89 1.0
e 57 254 49.0
e 57 314 1.0
e 57 135 1.0
e 57 218 1.0
e 57 150 1.0
e 57 306 1.0
e 57 172 45.0
e 58 132 20.0
e 58 74 1.0
e 58 62 1.0
e 58 183 5.0
e 58 102 4.0
e 58 90 1.0
e 58 31 19.0
e 58 145 1.0
e 59 166 1.0
e 59 188 1.0
e 59 77 1.0
e 59 315 34.0
e 59 210 1.0
e 59 190 1.0
e 59 52 1.0
e 59 14 33.0
e 60 142 48.0
e 60 98 1.0
e 60 73 1.0
e 60 21 1.0
e 60 138 1.0
e 60 166 1.0
e 60 37 37.0
e 60 282 1.0
e 61 79 1.0
e 61 155 27.0
e 61 188 1.0
e 61 9 22.0
e 61 66 1.0
e 61 70 45.0
e 61 38 1.0
e 62 1 1.0
e 62 111 2.0
e 62 63 10.0
e 62 212 1.0
e 62 297 1.0
e 62 114 1.0
e 62 30 1.0
e 62 216 1.0
e 63 26 10.0
e 63 279 36.0
e 63 239 16.0
e 63 167 21.0
e 63 50 29.0
e 63 172 18.0
e 63 101 22.0
e 63 88 30.0
e 64 1 1.0
e 64 167 45.0
e 64 10 1.0
e 64 46 1.0
e 64 273 1.0
e 64 271 1.0
e 64 288 1.0
e 64 179 1.0
e 65 79 1.0
e 65 203 1.0
e 65 145 1.0
e 65 157 1.0
e 65 3 4.0
e 65 16 1.0
e 65 277 49.0
e 65 126 48.0
e 66 137 1.0
e 66 63 42.0
e 66 1 1.0
e 66 71 36.0
e 66 122 1.0
e 66 312 1.0
e 66 150 1.0
e 66 101 2.0
e 67 40 14.0
e 67 13 27.0
e 67 114 27.0
e 67 165 15.0
e 67 118 47.0
e 67 197 33.0
e 67 247 44.0
e 67 291 11.0
e 68 186 1.0
e 68 212 1.0
e 68 310 44.0
e 68 43 1.0
e 68 303 6.0
e 68 42 39.0
e 68 290 1.0
e 68 318 1.0
e 69 179 1.0
e 69 18 1.0
e 69 89 1.0
e 69 229 30.0
e 69 304 1.0
e 69 263 35.0
e 69 51 1.0
e 70 189 14.0
e 70 219 11.0
e 70 195 31.0
e 70 105 3.0
e 70 132 41.0
e 70 217 41.0
e 70 266 12.0
e 71 141 3.0
e 71 33 16.0
e 71 9 13.0
e 71 288 14.0
e 71 166 1.0
e 71 134 35.0
e 71 287 48.0
e 71 20 12.0
e 72 290 1.0
e 72 23 1.0
e 72 59 1.0
e 72 316 1.0
e 72 259 1.0
e 72 61 1.0
e 72 34 1.0
e 72 257 1.0
e 73 132 14.0
e 73 300 1.0
e 73 223 1.0
e 73 233 1.0
e 73 269 1.0
e 73 121 10.0
e 73 254 3.0
e 73 13 38.0
e 74 214 1.0
e 74 0 1.0
e 74 176 1.0
e 74 61 1.0
e 74 201 11.0
e 74 44 1.0
e 74 99 1.0
e 74 200 1.0
e 75 204 13.0
e 75 175 1.0
e 75 21 1.0
e 75 3 45.0
e 75 156 13.0
e 75 170 1.0
e 75 56 1.0
e 76 17 1.0
e 76 51 1.0
e 76 77 1.0
e 76 162 1.0
e 76 130 1.0
e 76 62 1.0
e 76 158 1.0
e 76 202 1.0
e 77 239 1.0
e 77 62 1.0
e 77 273 1.0
e 77 190 1.0
e 77 312 1.0
e 77 113 45.0
e 77 159 1.0
e 77 67 12.0
e 78 148 30.0
e 78 214 1.0
e 78 136 16.0
e 78 99 1.0
e 78 33 1.0
e 78 252 1.0
e 78 74 1.0
e 78 227 20.0
e 79 307 1.0
e 79 223 1.0
e 79 96 1.0
e 79 148 2.0
e 79 9 17.0
e 79 257 1.0
e 79 93 1.0
e 79 82 1.0
e 80 41 44.0
e 80 72 37.0
e 80 117 4.0
e 80 263 6.0
e 80 246 34.0
e 80 267 36.0
e 80 103 42.0
e 80 190 4.0
e 81 132 19.0
e 81 199 14.0
e 81 1 8.0
e 81 57 40.0
e 81 311 32.0
e 81 221 23.0
e 81 128 39.0
e 81 120 25.0
e 82 122 1.0
e 82 105 1.0
e 82 142 39.0
e 82 5 44.0
e 82 171 1.0
e 82 34 1.0
e 82 154 1.0
e 82 111 31.0
e 83 41 22.0
e 83 167 44.0
e 83 112 1.0
e 83 198 1.0
e 83 21 1.0
e 83 305 44.0
e 83 246 1.0
e 83 214 1.0
e 84 277 24.0
e 84 180 1.0
e 84 162 1.0
e 84 37 22.0
e 84 103 30.0
e 84 130 1.0
e 84 239 1.0
e 84 98 1.0
e 85 170 37.0
e 85 50 39.0
e 85 178 43.0
e 85 198 35.0
e 85 61 25.0
e 85 253 17.0
e 85 289 17.0
e 85 169 8.0
e 86 191 31.0
e 86 80 26.0
e 86 15 5.0
e 86 152 35.0
e 86 111 17.0
e 86 270 10.0
e 86 55 11.0
e 86 60 48.0
e 87 63 12.0
e 87 122 1.0
e 87 259 1.0
e 87 174 1.0
e 87 86 27.0
e 87 223 1.0
e 87 217 1.0
e 87 303 11.0
e 88 218 1.0
e 88 197 45.0
e 88 167 4.0
e 88 4 1.0
e 88 245 1.0
e 88 138 1.0
e 88 85 7.0
e 88 130 1.0
e 89 306 1.0
e 89 303 4.0
e 89 62 1.0
e 89 106 1.0
e 89 108 1.0
e 89 67 22.0
e 89 196 1.0
e 90 178 1.0
e 90 83 1.0
e 90 268 20.0
e 90 10 1.0
e 90 93 1.0
e 90 288 1.0
e 90 8 1.0
e 90 154 1.0
e 91 279 1.0
e 91 300 1.0
e 91 173 1.0
e 91 149 1.0
e 91 34 1.0
e 91 178 1.0
e 91 274 1.0
e 91 271 1.0
e 92 75 1.0
e 92 117 1.0
e 92 41 16.0
e 92 202 1.0
e 92 3 17.0
e 92 152 1.0
e 92 76 1.0
e 92 221 1.0
e 93 76 1.0
e 93 262 1.0
e 93 244 1.0
e 93 103 41.0
e 93 266 1.0
e 93 267 1.0
e 93 161 1.0
e 93 82 1.0
e 94 0 1.0
e 94 241 1.0
e 94 307 1.0
e 94 201 44.0
e 94 223 1.0
e 94 66 1.0
e 94 148 34.0
e 94 128 1.0
e 95 161 36.0
e 95 96 25.0
e 95 247 15.0
e 95 147 43.0
e 95 43 11.0
e 95 54 43.0
e 95 80 35.0
e 95 18 40.0
e 96 274 1.0
e 96 165 19.0
e 96 3 10.0
e 96 306 1.0
e 96 12 1.0
e 96 83 1.0
e 96 67 12.0
e 96 125 1.0
e 97 5 48.0
e 97 298 1.0
e 97 163 27.0
e 97 30 1.0
e 97 115 1.0
e 97 154 1.0
e 97 138 1.0
e 97 145 1.0
e 98 212 1.0
e 98 34 1.0
e 98 41 7.0
e 98 3 20.0
e 98 181 37.0
e 98 158 1.0
e 98 313 1.0
e 98 229 30.0
e 99 238 38.0
e 99 104 19.0
e 99 263 37.0
e 99 308 15.0
e 99 241 1.0
e 99 100 1.0
e 99 35 1.0
e 99 265 1.0
e 100 48 1.0
e 100 58 1.0
e 100 118 6.0
e 100 154 1.0
e 100 271 1.0
e 100 185 1.0
e 100 103 35.0
e 100 226 1.0
e 101 189 20.0
e 101 268 30.0
e 101 58 28.0
e 101 61 33.0
e 101 36 29.0
e 101 131 40.0
e 101 219 49.0
e 101 211 4.0
e 102 256 33.0
e 102 164 31.0
e 102 18 21.0
e 102 77 17.0
e 102 201 18.0
e 102 267 32.0
e 102 311 25.0
e 102 222 42.0
e 103 127 29.0
e 103 264 10.0
e 103 48 18.0
e 103 170 42.0
e 103 303 25.0
e 103 18 29.0
e 103 87 2.0
e 103 216 10.0
e 104 235 15.0
e 104 232 1.0
e 104 79 10.0
e 104 293 9.0
e 104 170 7.0
e 104 149 6.0
e 104 285 27.0
e 105 299 1.0
e 105 217 1.0
e 105 131 29.0
e 105 87 1.0
e 105 291 1.0
e 105 205 1.0
e 105 53 1.0
e 105 148 37.0
e 106 128 1.0
e 106 61 1.0
e 106 82 1.0
e 106 10 1.0
e 106 285 1.0
e 106 4 1.0
e 106 42 1.0
e 106 226 1.0
e 107 256 8.0
e 107 202 1.0
e 107 19 1.0
e 107 122 1.0
e 107 20 1.0
e 107 104 46.0
e 107 100 1.0
e 107 257 1.0
e 108 78 1.0
e 108 141 40.0
e 108 113 20.0
e 108 36 1.0
e 108 43 1.0
e 108 167 9.0
e 108 294 1.0
e 108 58 1.0
e 109 58 1.0
e 109 45 1.0
e 109 303 4.0
e 109 86 33.0
e 109 223 1.0
e 109 264 1.0
e 109 55 1.0
e 109 8 1.0
e 110 73 44.0
e 110 238 26.0
e 110 68 30.0
e 110 139 12.0
e 110 278 21.0
e 110 312 15.0
e 110 99 35.0
e 110 239 15.0
e 111 34 32.0
e 111 64 13.0
e 111 247 44.0
e 111 60 31.0
e 111 79 36.0
e 111 185 22.0
e 111 144 44.0
e 111 104 47.0
e 112 223 1.0
e 112 220 1.0
e 112 302 1.0
e 112 235 47.0
e 112 84 1.0
e 112 96 1.0
e 112 229 37.0
e 112 195 36.0
e 113 173 4.0
e 113 84 23.0
e 113 87 19.0
e 113 314 33.0
e 113 275 31.0
e 113 78 3.0
e 113 298 3.0
e 113 238 19.0
e 114 190 1.0
e 114 165 13.0
e 114 79 1.0
e 114 193 1.0
e 114 297 1.0
e 114 170 1.0
e 114 315 32.0
e 114 84 1.0
e 115 42 10.0
e 115 15 18.0
e 115 253 1.0
e 115 111 40.0
e 115 109 1.0
e 115 284 1.0
e 115 1 1.0
e 115 183 14.0
e 116 283 26.0
e 116 302 1.0
e 116 292 1.0
e 116 57 1.0
e 116 265 1.0
e 116 126 8.0
e 116 256 28.0
e 116 132 22.0
e 117 189 3.0
e 117 94 1.0
e 117 141 3.0
e 117 302 1.0
e 117 127 1.0
e 117 96 1.0
e 117 233 1.0
e 118 278 24.0
e 118 236 20.0
e 118 255 9.0
e 118 91 21.0
e 118 209 7.0
e 118 229 33.0
e 118 147 49.0
e 118 189 24.0
e 119 13 4.0
e 119 149 46.0
e 119 205 43.0
e 119 268 1.0
e 119 221 2.0
e 119 167 18.0
e 119 286 39.0
e 119 34 37.0
e 120 33 1.0
e 120 280 22.0
e 120 82 1.0
e 120 51 1.0
e 120 287 1.0
e 120 293 1.0
e 120 304 1.0
e 120 290 1.0
e 121 11 24.0
e 121 293 27.0
e 121 239 2.0
e 121 227 25.0
e 121 172 41.0
e 121 8 45.0
e 121 221 37.0
e 121 45 45.0
e 122 38 2.0
e 122 129 28.0
e 122 4 1.0
e 122 227 48.0
e 122 3 14.0
e 122 247 16.0
e 122 123 25.0
e 122 241 1.0
e 123 209 35.0
e 123 10 24.0
e 123 281 26.0
e 123 71 30.0
e 123 138 36.0
e 123 157 44.0
e 123 26 34.0
e 123 178 22.0
e 124 168 1.0
e 124 21 1.0
e 124 121 43.0
e 124 312 1.0
e 124 81 23.0
e 124 157 1.0
e 124 260 1.0
e 124 108 1.0
e 125 294 1.0
e 125 310 27.0
e 125 47 1.0
e 125 266 1.0
e 125 183 16.0
e 125 11 1.0
e 125 293 1.0
e 125 311 37.0
e 126 263 14.0
e 126 179 43.0
e 126 141 39.0
e 126 294 8.0
e 126 164 1.0
e 126 49 44.0
e 126 105 5.0
e 126 146 43.0
e 127 69 1.0
e 127 6 2.0
e 127 269 1.0
e 127 261 1.0
e 127 219 1.0
e 127 221 1.0
e 127 315 29.0
e 127 46 1.0
e 128 312 1.0
e 128 23 1.0
e 128 267 1.0
e 128 230 1.0
e 128 63 48.0
e 128 142 37.0
e 128 212 1.0
e 128 259 1.0
e 129 296 30.0
e 129 242 37.0
e 129 303 43.0
e 129 163 37.0
e 129 29 29.0
e 129 288 32.0
e 129 95 45.0
e 129 243 29.0
e 130 104 31.0
e 130 107 1.0
e 130 231 1.0
e 130 30 1.0
e 130 75 1.0
e 130 131 20.0
e 130 209 1.0
e 130 46 1.0
e 131 260 29.0
e 131 103 27.0
e 131 2 17.0
e 131 255 48.0
e 131 290 21.0
e 131 216 23.0
e 131 215 1.0
e 132 98 13.0
e 132 43 10.0
e 132 71 30.0
e 132 46 26.0
e 132 209 40.0
e 132 274 10.0
e 132 4 4.0
e 132 88 20.0
e 133 36 1.0
e 133 154 1.0
e 133 210 1.0
e 133 288 1.0
e 133 22 1.0
e 133 314 1.0
e 133 62 1.0
e 133 114 1.0
e 134 35 1.0
e 134 119 24.0
e 134 218 1.0
e 134 0 2.0
e 134 125 1.0
e 134 264 1.0
e 134 162 1.0
e 134 193 1.0
e 135 286 1.0
e 135 98 1.0
e 135 119 38.0
e 135 158 1.0
e 135 298 1.0
e 135 140 1.0
e 135 77 1.0
e 135 66 1.0
e 136 290 26.0
e 136 48 34.0
e 136 173 31.0
e 136 210 1.0
e 136 82 39.0
e 136 292 22.0
e 136 170 45.0
e 136 256 19.0
e 137 244 2.0
e 137 180 1.0
e 137 177 1.0
e 137 39 1.0
e 137 291 1.0
e 137 95 42.0
e 137 211 2.0
e 137 237 1.0
e 138 8 1.0
e 138 31 4.0
e 138 148 7.0
e 138 275 1.0
e 138 294 1.0
e 138 114 1.0
e 138 189 46.0
e 138 157 1.0
e 139 141 40.0
e 139 266 1.0
e 139 54 1.0
e 139 160 1.0
e 139 178 1.0
e 139 136 23.0
e 139 32 1.0
e 139 288 1.0
e 140 147 1.0
e 140 18 1.0
e 140 184 1.0
e 140 238 47.0
e 140 15 39.0
e 140 28 33.0
e 140 193 1.0
e 140 277 30.0
e 141 276 11.0
e 141 301 36.0
e 141 230 40.0
e 141 66 36.0
e 141 297 37.0
e 141 307 32.0
e 141 235 4.0
e 141 215 38.0
e 142 204 14.0
e 142 282 42.0
e 142 206 31.0
e 142 83 25.0
e 142 217 20.0
e 142 112 35.0
e 142 119 33.0
e 142 262 30.0
e 143 284 31.0
e 143 281 1.0
e 143 108 24.0
e 143 205 5.0
e 143 23 18.0
e 143 123 36.0
e 143 154 12.0
e 143 4 31.0
e 144 110 1.0
e 144 235 3.0
e 144 243 1.0
e 144 18 1.0
e 144 101 49.0
e 144 131 37.0
e 144 72 1.0
e 144 226 1.0
e 145 232 1.0
e 145 310 5.0
e 145 276 1.0
e 145 283 18.0
e 145 7 1.0
e 145 291 1.0
e 145 66 1.0
e 145 223 1.0
e 146 57 1.0
e 146 194 2.0
e 146 91 1.0
e 146 286 1.0
e 146 222 1.0
e 146 298 1.0
e 146 88 1.0
e 146 183 25.0
e 147 172 16.0
e 147 317 3.0
e 147 180 1.0
e 147 244 1.0
e 147 77 1.0
e 147 245 1.0
e 147 215 1.0
e 147 88 1.0
e 148 141 20.0
e 148 93 47.0
e 148 244 23.0
e 148 96 4.0
e 148 243 13.0
e 149 253 1.0
e 149 169 23.0
e 149 190 1.0
e 149 189 37.0
e 149 123 39.0
e 149 115 1.0
e 149 90 1.0
e 150 1 1.0
e 150 134 1.0
e 150 29 1.0
e 150 226 1.0
e 150 210 1.0
e 150 176 1.0
e 150 263 22.0
e 150 7 1.0
e 151 4 1.0
e 151 210 1.0
e 151 167 10.0
e 151 72 1.0
e 151 145 1.0
e 151 306 1.0
e 151 11 1.0
e 151 224 1.0
e 152 12 1.0
e 152 99 1.0
e 152 153 30.0
e 152 39 1.0
e 152 197 2.0
e 152 16 1.0
e 152 234 1.0
e 152 143 38.0
e 153 2 39.0
e 153 264 48.0
e 153 117 49.0
e 153 248 17.0
e 153 82 17.0
e 153 308 22.0
e 153 298 43.0
e 153 65 31.0
e 154 220 1.0
e 154 96 1.0
e 154 49 1.0
e 154 313 1.0
e 154 37 6.0
e 154 99 1.0
e 154 168 1.0
e 155 241 6.0
e 155 130 28.0
e 155 135 49.0
e 155 234 43.0
e 155 276 49.0
e 155 275 12.0
e 155 12 48.0
e 156 26 10.0
e 156 221 9.0
e 156 275 27.0
e 156 61 1.0
e 156 289 2.0
e 156 23 35.0
e 156 244 34.0
e 156 96 36.0
e 157 41 8.0
e 157 55 1.0
e 157 283 41.0
e 157 234 1.0
e 157 86 30.0
e 157 267 1.0
e 157 276 1.0
e 157 225 46.0
e 158 300 1.0
e 158 134 1.0
e 158 254 33.0
e 158 141 12.0
e 158 283 2.0
e 158 231 1.0
e 158 305 11.0
e 159 145 1.0
e 159 281 1.0
e 159 254 39.0
e 159 262 1.0
e 159 15 30.0
e 159 56 1.0
e 159 197 9.0
e 159 191 1.0
e 160 197 32.0
e 160 168 1.0
e 160 208 1.0
e 160 279 1.0
e 160 185 1.0
e 160 41 7.0
e 160 56 1.0
e 160 45 1.0
e 161 108 1.0
e 161 312 1.0
e 161 238 45.0
e 161 209 1.0
e 161 22 1.0
e 161 128 1.0
e 161 13 20.0
e 162 172 17.0
e 162 259 1.0
e 162 241 1.0
e 162 45 1.0
e 162 256 27.0
e 162 232 1.0
e 162 147 1.0
e 162 295 1.0
e 163 170 40.0
e 163 43 4.0
e 163 13 6.0
e 163 18 29.0
e 163 212 16.0
e 163 79 1.0
e 163 306 34.0
e 163 19 21.0
e 164 117 1.0
e 164 286 1.0
e 164 244 1.0
e 164 98 1.0
e 164 294 1.0
e 164 247 2.0
e 164 99 1.0
e 164 260 1.0
e 165 39 33.0
e 165 293 35.0
e 165 8 28.0
e 165 7 44.0
e 165 218 6.0
e 165 216 37.0
e 165 180 32.0
e 165 34 40.0
e 166 39 1.0
e 166 142 30.0
e 166 280 31.0
e 166 108 1.0
e 166 228 17.0
e 166 158 1.0
e 166 268 29.0
e 166 284 1.0
e 167 199 9.0
e 167 139 4.0
e 167 293 45.0
e 167 86 11.0
e 167 146 38.0
e 167 2 37.0
e 167 256 38.0
e 167 311 25.0
e 168 78 1.0
e 168 307 1.0
e 168 190 1.0
e 168 54 1.0
e 168 223 1.0
e 168 39 1.0
e 168 51 1.0
e 168 1 1.0
e 169 35 45.0
e 169 291 1.0
e 169 221 19.0
e 169 61 39.0
e 169 91 43.0
e 169 115 26.0
e 169 285 6.0
e 169 55 39.0
e 170 288 1.0
e 170 214 1.0
e 170 129 27.0
e 170 273 1.0
e 170 268 27.0
e 170 43 1.0
e 170 94 1.0
e 170 26 1.0
e 171 53 1.0
e 171 160 1.0
e 171 258 1.0
e 171 254 44.0
e 171 280 38.0
e 171 35 1.0
e 171 173 1.0
e 171 302 1.0
e 172 310 41.0
e 172 48 35.0
e 172 317 8.0
e 172 126 8.0
e 172 17 27.0
e 172 47 4.0
e 172 272 40.0
e 173 66 1.0
e 173 314 1.0
e 173 265 1.0
e 173 111 4.0
e 173 306 1.0
e 173 108 1.0
e 173 123 28.0
e 174 308 30.0
e 174 123 35.0
e 174 148 12.0
e 174 250 1.0
e 174 131 22.0
e 174 283 44.0
e 174 115 1.0
e 174 311 19.0
e 175 77 1.0
e 175 210 1.0
e 175 303 44.0
e 175 244 1.0
e 175 183 22.0
e 175 145 1.0
e 175 302 1.0
e 175 50 27.0
e 176 26 1.0
e 176 209 1.0
e 176 8 1.0
e 176 153 4.0
e 176 138 1.0
e 176 109 1.0
e 176 179 1.0
e 176 233 1.0
e 177 204 28.0
e 177 55 1.0
e 177 302 1.0
e 177 113 28.0
e 177 297 1.0
e 177 172 20.0
e 177 30 1.0
e 177 105 1.0
e 178 47 1.0
e 178 271 1.0
e 178 54 1.0
e 178 205 1.0
e 178 288 1.0
e 178 63 12.0
e 178 154 1.0
e 179 86 15.0
e 179 34 1.0
e 179 227 43.0
e 179 245 1.0
e 179 12 1.0
e 179 312 1.0
e 179 67 35.0
e 179 61 1.0
e 180 56 1.0
e 180 261 1.0
e 180 287 1.0
e 180 47 2.0
e 180 192 2.0
e 180 74 1.0
e 180 285 1.0
e 180 53 2.0
e 181 221 48.0
e 181 176 4.0
e 181 130 15.0
e 181 184 14.0
e 181 311 3.0
e 181 186 42.0
e 181 69 37.0
e 181 236 35.0
e 182 249 1.0
e 182 208 1.0
e 182 287 1.0
e 182 225 19.0
e 182 303 37.0
e 182 55 1.0
e 182 288 1.0
e 182 81 26.0
e 183 214 34.0
e 183 72 49.0
e 183 53 36.0
e 183 227 9.0
e 183 255 42.0
e 183 11 46.0
e 183 197 26.0
e 183 307 27.0
e 184 191 1.0
e 184 12 1.0
e 184 202 1.0
e 184 110 28.0
e 184 285 1.0
e 184 46 3.0
e 184 308 17.0
e 185 205 1.0
e 185 104 30.0
e 185 294 1.0
e 185 3 18.0
e 185 27 1.0
e 185 91 1.0
e 185 285 1.0
e 185 36 1.0
e 186 71 49.0
e 186 74 1.0
e 186 298 1.0
e 186 296 1.0
e 186 283 32.0
e 186 164 1.0
e 186 45 1.0
e 186 56 1.0
e 187 44 1.0
e 187 124 1.0
e 187 159 1.0
e 187 165 47.0
e 187 195 43.0
e 187 57 1.0
e 187 45 1.0
e 187 258 1.0
e 188 285 1.0
e 188 97 1.0
e 188 7 1.0
e 188 77 1.0
e 188 315 47.0
e 188 89 1.0
e 188 110 18.0
e 188 225 19.0
e 189 192 27.0
e 189 167 14.0
e 189 93 11.0
e 189 288 10.0
e 189 27 14.0
e 189 148 25.0
e 189 165 46.0
e 189 158 25.0
e 190 186 1.0
e 190 94 1.0
e 190 223 1.0
e 190 212 1.0
e 190 298 1.0
e 190 82 1.0
e 190 171 1.0
e 190 113 44.0
e 191 196 1.0
e 191 273 1.0
e 191 64 1.0
e 191 142 34.0
e 191 44 1.0
e 191 25 1.0
e 191 76 1.0
e 191 130 1.0
e 192 160 1.0
e 192 4 1.0
e 192 146 1.0
e 192 157 1.0
e 192 58 1.0
e 192 304 1.0
e 192 228 49.0
e 192 302 1.0
e 193 248 1.0
e 193 313 1.0
e 193 154 1.0
e 193 44 1.0
e 193 45 1.0
e 193 174 1.0
e 193 113 8.0
e 193 99 1.0
e 194 191 1.0
e 194 277 10.0
e 194 59 1.0
e 194 34 1.0
e 194 202 2.0
e 194 288 1.0
e 194 88 1.0
e 194 179 2.0
e 195 284 37.0
e 195 36 15.0
e 195 123 6.0
e 195 313 49.0
e 195 150 13.0
e 195 63 34.0
e 195 94 9.0
e 195 218 19.0
e 196 132 40.0
e 196 55 1.0
e 196 264 1.0
e 196 265 1.0
e 196 122 1.0
e 196 7 1.0
e 196 197 9.0
e 196 130 1.0
e 197 241 36.0
e 197 214 42.0
e 197 53 24.0
e 197 312 4.0
e 197 68 33.0
e 197 43 16.0
e 197 86 9.0
e 197 100 39.0
e 198 145 1.0
e 198 68 1.0
e 198 165 22.0
e 198 236 32.0
e 198 257 1.0
e 198 233 1.0
e 198 64 1.0
e 198 242 1.0
e 199 149 1.0
e 199 59 1.0
e 199 96 1.0
e 199 292 1.0
e 199 262 1.0
e 199 263 43.0
e 199 80 28.0
e 199 35 1.0
e 200 228 41.0
e 200 133 1.0
e 200 308 14.0
e 200 25 1.0
e 200 220 1.0
e 200 301 1.0
e 200 116 1.0
e 200 287 1.0
e 201 20 24.0
e 201 288 39.0
e 201 235 43.0
e 201 141 15.0
e 201 182 3.0
e 201 246 9.0
e 201 106 33.0
e 201 219 4.0
e 202 10 1.0
e 202 306 1.0
e 202 294 1.0
e 202 235 23.0
e 202 256 41.0
e 202 35 1.0
e 202 105 1.0
e 203 283 39.0
e 203 233 1.0
e 203 157 1.0
e 203 285 1.0
e 203 46 1.0
e 203 97 1.0
e 203 146 1.0
e 203 295 1.0
e 204 230 23.0
e 204 71 3.0
e 204 188 24.0
e 204 66 31.0
e 204 157 24.0
e 204 181 12.0
e 204 303 13.0
e 204 134 37.0
e 205 227 42.0
e 205 224 1.0
e 205 266 1.0
e 205 181 31.0
e 205 242 1.0
e 205 31 38.0
e 205 136 26.0
e 205 293 1.0
e 206 235 18.0
e 206 233 1.0
e 206 309 1.0
e 206 137 1.0
e 206 65 1.0
e 206 182 1.0
e 206 287 1.0
e 206 273 1.0
e 207 40 44.0
e 207 157 1.0
e 207 102 36.0
e 207 260 1.0
e 207 162 1.0
e 207 94 1.0
e 207 318 1.0
e 207 245 1.0
e 208 268 1.0
e 208 271 1.0
e 208 318 1.0
e 208 311 32.0
e 208 118 41.0
e 208 61 1.0
e 208 162 1.0
e 209 237 1.0
e 209 8 1.0
e 209 125 1.0
e 209 119 21.0
e 209 101 9.0
e 209 108 1.0
e 209 277 45.0
e 209 313 1.0
e 210 3 38.0
e 210 155 3.0
e 210 106 1.0
e 210 212 1.0
e 210 10 1.0
e 210 162 1.0
e 210 205 1.0
e 210 134 1.0
e 211 183 41.0
e 211 141 31.0
e 211 279 1.0
e 211 70 13.0
e 211 107 1.0
e 211 178 1.0
e 211 170 1.0
e 211 286 1.0
e 212 94 2.0
e 212 252 1.0
e 212 191 1.0
e 212 168 2.0
e 212 32 1.0
e 212 300 1.0
e 212 21 2.0
e 212 281 1.0
e 213 83 1.0
e 213 118 22.0
e 213 26 1.0
e 213 153 3.0
e 213 176 1.0
e 213 44 1.0
e 213 172 48.0
e 213 215 1.0
e 214 73 1.0
e 214 311 40.0
e 214 274 1.0
e 214 278 1.0
e 214 258 1.0
e 214 294 1.0
e 214 262 1.0
e 214 153 24.0
e 215 24 1.0
e 215 190 1.0
e 215 168 1.0
e 215 284 1.0
e 215 236 32.0
e 215 1 1.0
e 215 112 1.0
e 215 37 22.0
e 216 275 1.0
e 216 123 33.0
e 216 170 1.0
e 216 206 1.0
e 216 307 1.0
e 216 205 1.0
e 216 31 17.0
e 216 43 1.0
e 217 279 1.0
e 217 81 11.0
e 217 255 1.0
e 217 103 24.0
e 217 115 1.0
e 217 100 1.0
e 217 211 1.0
e 217 301 1.0
e 218 167 42.0
e 218 42 6.0
e 218 221 1.0
e 218 156 27.0
e 218 176 1.0
e 218 160 1.0
e 218 66 1.0
e 218 86 6.0
e 219 72 1.0
e 219 180 1.0
e 219 137 1.0
e 219 108 1.0
e 219 276 1.0
e 219 4 1.0
e 219 280 7.0
e 220 185 1.0
e 220 149 1.0
e 220 64 1.0
e 220 206 1.0
e 220 276 1.0
e 220 214 1.0
e 220 120 1.0
e 220 173 1.0
e 221 151 1.0
e 221 83 1.0
e 221 263 4.0
e 221 110 15.0
e 221 95 45.0
e 221 31 46.0
e 221 305 4.0
e 221 274 1.0
e 222 206 1.0
e 222 115 1.0
e 222 108 1.0
e 222 264 1.0
e 222 97 1.0
e 222 118 1.0
e 222 140 1.0
e 222 197 8.0
e 223 16 1.0
e 223 153 37.0
e 223 124 1.0
e 223 49 1.0
e 223 317 20.0
e 223 218 1.0
e 223 66 1.0
e 223 174 1.0
e 224 146 1.0
e 224 253 1.0
e 224 103 21.0
e 224 144 1.0
e 224 133 1.0
e 224 316 1.0
e 224 74 1.0
e 224 266 1.0
e 225 64 14.0
e 225 307 39.0
e 225 5 47.0
e 225 12 17.0
e 225 255 18.0
e 225 27 27.0
e 225 247 10.0
e 225 271 26.0
e 226 78 1.0
e 226 123 14.0
e 226 263 34.0
e 226 111 31.0
e 226 24 1.0
e 226 310 2.0
e 226 31 3.0
e 226 15 4.0
e 227 51 16.0
e 227 7 4.0
e 227 21 38.0
e 227 276 26.0
e 227 262 25.0
e 227 168 46.0
e 227 55 3.0
e 228 4 5.0
e 228 116 34.0
e 228 129 25.0
e 228 206 7.0
e 228 70 45.0
e 228 103 30.0
e 228 256 31.0
e 228 177 20.0
e 229 290 33.0
e 229 91 16.0
e 229 45 26.0
e 229 203 4.0
e 229 262 8.0
e 229 307 48.0
e 229 56 9.0
e 229 106 27.0
e 230 26 1.0
e 230 22 1.0
e 230 305 2.0
e 230 150 1.0
e 230 138 1.0
e 230 167 24.0
e 230 76 1.0
e 230 114 1.0
e 231 83 1.0
e 231 272 1.0
e 231 248 1.0
e 231 196 1.0
e 231 73 1.0
e 231 238 33.0
e 231 94 1.0
e 231 134 1.0
e 232 100 1.0
e 232 99 1.0
e 232 166 1.0
e 232 67 42.0
e 232 252 1.0
e 232 79 1.0
e 232 297 1.0
e 232 59 1.0
e 233 249 1.0
e 233 85 31.0
e 233 2 1.0
e 233 162 1.0
e 233 178 1.0
e 233 228 8.0
e 233 234 1.0
e 234 27 1.0
e 234 44 1.0
e 234 53 1.0
e 234 279 1.0
e 234 16 1.0
e 234 191 1.0
e 234 46 3.0
e 234 264 1.0
e 235 316 21.0
e 235 73 46.0
e 235 268 22.0
e 235 315 42.0
e 235 155 1.0
e 235 30 36.0
e 236 170 21.0
e 236 63 39.0
e 236 271 47.0
e 236 40 5.0
e 236 2 12.0
e 236 156 5.0
e 236 160 3.0
e 236 299 6.0
e 237 90 1.0
e 237 66 1.0
e 237 259 1.0
e 237 114 1.0
e 237 218 2.0
e 237 105 2.0
e 237 117 1.0
e 238 300 42.0
e 238 211 49.0
e 238 241 40.0
e 238 102 38.0
e 238 196 18.0
e 238 12 15.0
e 238 151 33.0
e 238 94 45.0
e 239 168 1.0
e 239 158 1.0
e 239 312 1.0
e 239 274 1.0
e 239 256 32.0
e 239 263 36.0
e 239 98 1.0
e 239 107 1.0
e 240 139 1.0
e 240 261 1.0
e 240 270 1.0
e 240 214 1.0
e 240 15 47.0
e 240 35 1.0
e 240 117 1.0
e 240 113 7.0
e 241 66 1.0
e 241 185 1.0
e 241 298 1.0
e 241 14 3.0
e 241 253 1.0
e 241 151 1.0
e 241 208 1.0
e 241 44 1.0
e 242 73 1.0
e 242 238 41.0
e 242 11 1.0
e 242 227 6.0
e 242 56 1.0
e 242 233 1.0
e 242 144 1.0
e 242 139 1.0
e 243 93 1.0
e 243 236 16.0
e 243 205 1.0
e 243 306 1.0
e 243 184 1.0
e 243 191 1.0
e 243 221 1.0
e 244 129 15.0
e 244 10 1.0
e 244 150 1.0
e 244 186 1.0
e 244 80 37.0
e 244 305 25.0
e 244 90 1.0
e 245 51 1.0
e 245 24 1.0
e 245 101 5.0
e 245 61 1.0
e 245 6 1.0
e 245 219 1.0
e 245 47 1.0
e 245 71 45.0
e 246 34 1.0
e 246 45 1.0
e 246 165 16.0
e 246 200 1.0
e 246 6 1.0
e 246 90 1.0
e 246 15 33.0
e 246 47 1.0
e 247 92 17.0
e 247 237 49.0
e 247 294 30.0
e 247 266 6.0
e 247 254 22.0
e 247 33 33.0
e 247 66 43.0
e 247 202 22.0
e 248 163 13.0
e 248 155 4.0
e 248 148 33.0
e 248 171 1.0
e 248 31 40.0
e 248 95 35.0
e 248 147 1.0
e 248 89 1.0
e 249 277 42.0
e 249 240 1.0
e 249 293 1.0
e 249 52 1.0
e 249 151 1.0
e 249 292 1.0
e 249 204 41.0
e 249 175 1.0
e 250 200 1.0
e 250 20 1.0
e 250 211 1.0
e 250 136 28.0
e 250 82 1.0
e 250 84 1.0
e 250 85 42.0
e 250 277 4.0
e 251 60 1.0
e 251 43 1.0
e 251 311 25.0
e 251 211 1.0
e 251 73 1.0
e 251 177 1.0
e 251 162 1.0
e 251 213 1.0
e 252 277 15.0
e 252 41 23.0
e 252 112 1.0
e 252 66 1.0
e 252 272 1.0
e 252 278 1.0
e 252 119 20.0
e 252 138 1.0
e 253 269 1.0
e 253 311 49.0
e 253 153 14.0
e 253 143 41.0
e 253 51 1.0
e 253 185 1.0
e 253 261 1.0
e 253 138 1.0
e 254 61 3.0
e 254 100 45.0
e 254 210 41.0
e 254 262 20.0
e 254 89 36.0
e 254 305 26.0
e 254 122 21.0
e 254 186 24.0
e 255 222 1.0
e 255 100 1.0
e 255 104 29.0
e 255 56 1.0
e 255 114 1.0
e 255 3 12.0
e 255 194 1.0
e 255 58 1.0
e 256 209 40.0
e 256 176 10.0
e 256 265 24.0
e 256 88 39.0
e 256 110 2.0
e 256 78 42.0
e 256 172 8.0
e 256 183 9.0
e 257 75 1.0
e 257 254 47.0
e 257 7 1.0
e 257 132 23.0
e 257 164 1.0
e 257 201 6.0
e 257 99 1.0
e 257 59 1.0
e 258 101 21.0
e 258 282 1.0
e 258 260 1.0
e 258 221 1.0
e 258 88 1.0
e 258 12 1.0
e 258 90 1.0
e 258 265 1.0
e 259 9 10.0
e 259 17 1.0
e 259 132 31.0
e 259 211 1.0
e 259 166 1.0
e 259 218 1.0
e 259 305 13.0
e 259 286 1.0
e 260 143 37.0
e 260 157 1.0
e 260 291 1.0
e 260 220 1.0
e 260 201 18.0
e 260 191 1.0
e 260 97 1.0
e 261 239 1.0
e 261 133 1.0
e 261 296 1.0
e 261 163 12.0
e 261 184 1.0
e 261 27 1.0
e 261 206 1.0
e 261 53 1.0
e 262 298 1.0
e 262 173 1.0
e 262 301 1.0
e 262 111 9.0
e 262 86 13.0
e 262 32 1.0
e 262 48 1.0
e 262 12 1.0
e 263 219 18.0
e 263 36 21.0
e 263 120 18.0
e 263 216 28.0
e 263 16 47.0
e 263 234 8.0
e 263 217 32.0
e 263 230 17.0
e 264 177 1.0
e 264 59 1.0
e 264 10 1.0
e 264 290 1.0
e 264 95 25.0
e 264 60 1.0
e 264 98 1.0
e 264 316 1.0
e 265 113 41.0
e 265 54 1.0
e 265 269 1.0
e 265 284 1.0
e 265 100 1.0
e 265 277 21.0
e 265 72 1.0
e 266 83 1.0
e 266 200 1.0
e 266 1 1.0
e 266 122 1.0
e 266 84 1.0
e 266 241 1.0
e 266 268 18.0
e 266 274 1.0
e 267 197 30.0
e 267 170 1.0
e 267 149 1.0
e 267 214 1.0
e 267 295 1.0
e 267 188 1.0
e 267 224 1.0
e 267 68 1.0
e 268 85 9.0
e 268 32 9.0
e 268 3 12.0
e 268 99 6.0
e 268 130 49.0
e 268 293 43.0
e 268 275 40.0
e 268 315 47.0
e 269 236 48.0
e 269 169 35.0
e 269 144 1.0
e 269 296 1.0
e 269 229 34.0
e 269 30 1.0
e 269 194 1.0
e 269 37 19.0
e 270 285 1.0
e 270 127 1.0
e 270 47 1.0
e 270 210 1.0
e 270 158 1.0
e 270 305 12.0
e 270 313 1.0
e 270 157 1.0
e 271 12 1.0
e 271 205 1.0
e 271 5 38.0
e 271 315 20.0
e 271 30 1.0
e 271 22 1.0
e 271 294 1.0
e 271 125 1.0
e 272 65 1.0
e 272 211 1.0
e 272 303 10.0
e 272 113 9.0
e 272 205 1.0
e 272 189 31.0
e 272 143 44.0
e 272 42 20.0
e 273 88 1.0
e 273 313 1.0
e 273 14 31.0
e 273 256 45.0
e 273 76 1.0
e 273 13 25.0
e 273 271 1.0
e 273 214 1.0
e 274 51 1.0
e 274 312 1.0
e 274 86 46.0
e 274 170 1.0
e 274 60 1.0
e 274 58 1.0
e 274 238 14.0
e 274 112 1.0
e 275 144 1.0
e 275 16 1.0
e 275 28 27.0
e 275 93 1.0
e 275 240 1.0
e 275 105 1.0
e 275 259 1.0
e 276 59 1.0
e 276 197 16.0
e 276 303 44.0
e 276 63 12.0
e 276 25 3.0
e 276 187 1.0
e 276 50 22.0
e 276 139 1.0
e 277 314 22.0
e 277 297 30.0
e 277 213 5.0
e 277 217 49.0
e 277 255 25.0
e 277 288 5.0
e 277 55 5.0
e 278 2 1.0
e 278 177 1.0
e 278 1 1.0
e 278 276 1.0
e 278 24 1.0
e 278 53 1.0
e 278 9 4.0
e 278 25 1.0
e 279 206 1.0
e 279 101 12.0
e 279 39 1.0
e 279 173 1.0
e 279 278 1.0
e 279 246 1.0
e 279 168 1.0
e 279 81 20.0
e 280 173 43.0
e 280 231 41.0
e 280 253 41.0
e 280 117 11.0
e 280 302 15.0
e 280 240 35.0
e 280 30 20.0
e 280 140 49.0
e 281 127 1.0
e 281 41 2.0
e 281 130 1.0
e 281 93 1.0
e 281 36 1.0
e 281 46 2.0
e 281 214 1.0
e 281 140 1.0
e 282 262 1.0
e 282 238 31.0
e 282 177 1.0
e 282 93 1.0
e 282 227 22.0
e 282 184 1.0
e 282 206 1.0
e 282 269 1.0
e 283 105 28.0
e 283 147 28.0
e 283 146 40.0
e 283 63 37.0
e 283 257 8.0
e 283 278 18.0
e 283 264 40.0
e 283 118 21.0
e 284 193 1.0
e 284 138 1.0
e 284 244 1.0
e 284 299 1.0
e 284 83 1.0
e 284 165 35.0
e 284 167 43.0
e 284 231 1.0
e 285 240 1.0
e 285 44 1.0
e 285 280 22.0
e 285 21 1.0
e 285 55 1.0
e 285 4 1.0
e 285 125 1.0
e 286 139 1.0
e 286 308 10.0
e 286 100 1.0
e 286 83 1.0
e 286 92 1.0
e 286 149 1.0
e 286 272 1.0
e 286 14 14.0
e 287 225 36.0
e 287 106 1.0
e 287 310 45.0
e 287 139 1.0
e 287 112 1.0
e 287 73 1.0
e 287 229 48.0
e 287 105 1.0
e 288 215 1.0
e 288 174 1.0
e 288 41 39.0
e 288 124 1.0
e 288 6 2.0
e 289 314 1.0
e 289 65 1.0
e 289 117 1.0
e 289 149 1.0
e 289 97 1.0
e 289 56 1.0
e 289 27 1.0
e 289 247 40.0
e 290 91 1.0
e 290 99 1.0
e 290 14 32.0
e 290 167 40.0
e 290 129 38.0
e 290 215 1.0
e 290 181 38.0
e 290 310 1.0
e 291 270 1.0
e 291 302 1.0
e 291 3 36.0
e 291 178 1.0
e 291 157 1.0
e 291 1 1.0
e 291 109 1.0
e 291 43 1.0
e 292 183 20.0
e 292 123 42.0
e 292 4 1.0
e 292 209 1.0
e 292 150 1.0
e 292 80 29.0
e 292 281 1.0
e 292 50 15.0
e 293 67 8.0
e 293 278 1.0
e 293 162 1.0
e 293 185 1.0
e 293 245 1.0
e 293 216 1.0
e 293 181 49.0
e 293 204 39.0
e 294 293 1.0
e 294 131 8.0
e 294 143 18.0
e 294 10 1.0
e 294 149 1.0
e 294 170 1.0
e 294 267 1.0
e 295 51 1.0
e 295 80 49.0
e 295 64 1.0
e 295 30 1.0
e 295 102 6.0
e 295 287 1.0
e 295 79 1.0
e 295 118 37.0
e 296 205 1.0
e 296 274 1.0
e 296 97 1.0
e 296 263 42.0
e 296 185 1.0
e 296 234 1.0
e 296 23 1.0
e 296 224 1.0
e 297 122 1.0
e 297 134 1.0
e 297 36 1.0
e 297 227 17.0
e 297 200 1.0
e 297 241 1.0
e 297 135 1.0
e 297 263 16.0
e 298 73 1.0
e 298 20 1.0
e 298 277 21.0
e 298 302 1.0
e 298 299 1.0
e 298 105 1.0
e 298 169 11.0
e 298 191 1.0
e 299 197 18.0
e 299 66 1.0
e 299 103 14.0
e 299 201 17.0
e 299 40 41.0
e 299 157 1.0
e 299 191 1.0
e 300 284 1.0
e 300 234 1.0
e 300 285 1.0
e 300 8 1.0
e 300 161 1.0
e 300 204 41.0
e 300 4 1.0
e 300 136 45.0
e 301 13 22.0
e 301 311 48.0
e 301 298 1.0
e 301 213 1.0
e 301 264 1.0
e 301 256 4.0
e 301 291 1.0
e 301 119 36.0
e 302 11 1.0
e 302 37 37.0
e 302 18 1.0
e 302 315 42.0
e 302 111 36.0
e 302 125 1.0
e 302 5 22.0
e 302 38 1.0
e 303 90 8.0
e 303 262 42.0
e 303 159 48.0
e 303 81 41.0
e 303 52 22.0
e 303 157 40.0
e 303 33 16.0
e 304 205 1.0
e 304 139 1.0
e 304 259 1.0
e 304 155 11.0
e 304 63 36.0
e 304 61 1.0
e 304 0 2.0
e 304 210 1.0
e 305 40 22.0
e 305 95 2.0
e 305 202 12.0
e 305 10 48.0
e 305 75 28.0
e 305 133 43.0
e 305 157 43.0
e 306 131 20.0
e 306 54 1.0
e 306 56 1.0
e 306 40 27.0
e 306 30 1.0
e 306 77 1.0
e 306 193 1.0
e 306 74 1.0
e 307 33 1.0
e 307 18 1.0
e 307 277 21.0
e 307 30 1.0
e 307 217 1.0
e 307 85 30.0
e 307 293 1.0
e 307 257 1.0
e 308 32 48.0
e 308 247 21.0
e 308 101 21.0
e 308 233 8.0
e 308 196 25.0
e 308 154 42.0
e 309 220 1.0
e 309 26 1.0
e 309 152 1.0
e 309 204 48.0
e 309 191 1.0
e 309 109 1.0
e 309 194 1.0
e 309 158 1.0
e 310 1 21.0
e 310 318 6.0
e 310 10 8.0
e 310 19 17.0
e 310 283 11.0
e 310 303 42.0
e 310 110 4.0
e 310 161 49.0
e 311 54 24.0
e 311 224 43.0
e 311 203 6.0
e 311 300 21.0
e 311 206 38.0
e 311 69 20.0
e 311 16 46.0
e 311 222 5.0
e 312 120 1.0
e 312 108 1.0
e 312 141 22.0
e 312 154 1.0
e 312 255 1.0
e 312 220 1.0
e 312 42 30.0
e 312 45 1.0
e 313 128 1.0
e 313 86 20.0
e 313 94 1.0
e 313 151 1.0
e 313 111 45.0
e 313 306 1.0
e 313 25 1.0
e 313 237 1.0
e 314 172 6.0
e 314 92 1.0
e 314 247 39.0
e 314 294 1.0
e 314 145 1.0
e 314 315 17.0
e 314 162 1.0
e 314 259 1.0
e 315 318 34.0
e 315 151 15.0
e 315 35 19.0
e 315 258 22.0
e 315 274 47.0
e 315 154 19.0
e 315 218 1.0
e 316 122 1.0
e 316 62 1.0
e 316 40 21.0
e 316 155 32.0
e 316 169 46.0
e 316 227 14.0
e 316 141 41.0
e 317 286 35.0
e 317 118 42.0
e 317 128 40.0
e 317 201 23.0
e 317 188 49.0
e 317 21 15.0
e 317 10 20.0
e 317 176 42.0
e 318 71 11.0
e 318 229 34.0
e 318 1 1.0
e 318 10 1.0
e 318 259 1.0
e 318 108 1.0
e 318 82 1.0
e 318 56 1.0
e 319 107 1.0
e 319 268 22.0
e 319 8 2.0
e 319 202 1.0
e 319 151 1.0
e 319 300 2.0
e 319 89 3.0
e 319 240 1.0
